p cnf 6 20
-6 -2 -5 -2 -4 -2 -3 2 -2 -1 -6 -2 -5 -2 -4 -2 -3 2 -2 -1 -6 -2 -5 -2 -4 -2 -3 2 -2 -1 0
-6 -2 -5 -2 -4 -2 -3 2 -2 -1 -6 -2 -5 -2 -4 -2 -3 2 -2 -1 -6 -2 -5 -2 -4 -2 -3 2 -2 -1 0
-6 -2 -5 -2 -4 -2 -3 2 -2 -1 -6 -2 -5 -2 -4 -2 -3 2 -2 -1 -6 -2 -5 -2 -4 -2 -3 2 -2 -1 0
-6 -2 -5 -2 -4 -2 -3 2 -2 -1 -6 -2 -5 -2 -4 -2 -3 2 -2 -1 -6 -2 -5 -2 -4 -2 -3 2 -2 -1 0
-6 -2 -5 -2 -4 -2 -3 2 -2 -1 -6 -2 -5 -2 -4 -2 -3 2 -2 -1 -6 -2 -5 -2 -4 -2 -3 2 -2 -1 0
-6 -2 -5 -2 -4 -2 -3 2 -2 -1 -6 -2 -5 -2 -4 -2 -3 2 -2 -1 -6 -2 -5 -2 -4 -2 -3 2 -2 -1 0
-6 -2 -5 -2 -4 -2 -3 2 -2 -1 -6 -2 -5 -2 -4 -2 -3 2 -2 -1 -6 -2 -5 -2 -4 -2 -3 2 -2 -1 0
-6 -2 -5 -2 -4 -2 -3 2 -2 -1 -6 -2 -5 -2 -4 -2 -3 2 -2 -1 -6 -2 -5 -2 -4 -2 -3 2 -2 -1 0
-6 -2 -5 -2 -4 -2 -3 2 -2 -1 -6 -2 -5 -2 -4 -2 -3 2 -2 -1 -6 -2 -5 -2 -4 -2 -3 2 -2 -1 0
-6 -2 -5 -2 -4 -2 -3 2 -2 -1 -6 -2 -5 -2 -4 -2 -3 2 -2 -1 -6 -2 -5 -2 -4 -2 -3 2 -2 -1 0
-6 -2 -5 -2 -4 -2 -3 2 -2 -1 -6 -2 -5 -2 -4 -2 -3 2 -2 -1 -6 -2 -5 -2 -4 -2 -3 2 -2 -1 0
-6 -2 -5 -2 -4 -2 -3 2 -2 -1 -6 -2 -5 -2 -4 -2 -3 2 -2 -1 -6 -2 -5 -2 -4 -2 -3 2 -2 -1 0
-6 -2 -5 -2 -4 -2 -3 2 -2 -1 -6 -2 -5 -2 -4 -2 -3 2 -2 -1 -6 -2 -5 -2 -4 -2 -3 2 -2 -1 0
-6 -2 -5 -2 -4 -2 -3 2 -2 -1 -6 -2 -5 -2 -4 -2 -3 2 -2 -1 -6 -2 -5 -2 -4 -2 -3 2 -2 -1 0
-6 -2 -5 -2 -4 -2 -3 2 -2 -1 -6 -2 -5 -2 -4 -2 -3 2 -2 -1 -6 -2 -5 -2 -4 -2 -3 2 -2 -1 0
-6 -2 -5 -2 -4 -2 -3 2 -2 -1 -6 -2 -5 -2 -4 -2 -3 2 -2 -1 -6 -2 -5 -2 -4 -2 -3 2 -2 -1 0
-6 -2 -5 -2 -4 -2 -3 2 -2 -1 -6 -2 -5 -2 -4 -2 -3 2 -2 -1 -6 -2 -5 -2 -4 -2 -3 2 -2 -1 0
-6 -2 -5 -2 -4 -2 -3 2 -2 -1 -6 -2 -5 -2 -4 -2 -3 2 -2 -1 -6 -2 -5 -2 -4 -2 -3 2 -2 -1 0
-6 -2 -5 -2 -4 -2 -3 2 -2 -1 -6 -2 -5 -2 -4 -2 -3 2 -2 -1 -6 -2 -5 -2 -4 -2 -3 2 -2 -1 0
-6 -2 -5 -2 -4 -2 -3 2 -2 -1 -6 -2 -5 -2 -4 -2 -3 2 -2 -1 -6 -2 -5 -2 -4 -2 -3 2 -2 -1 0
